
--- Job M1_7_E1e.gms Start 05/31/25 23:25:41 47.5.0 d6b95593 DEX-DEG x86 64bit/macOS
--- Applying:
    /Library/Frameworks/GAMS.framework/Versions/47/Resources/gmsprmun.txt
--- GAMS Parameters defined
    Input "/Users/pm.deoliveiradejes/Dropbox (Personal)/Maestria en Energia (MISE)/MISE_E4/MISE_E4-main/M1.7_Energy_Communitty_Dispatch/Ejemplo_1_MINLP/energy_community_CDS/24h/Gams/M1_7_E1e.gms"
    PageSize 0
    ScrDir "/Users/pm.deoliveiradejes/Dropbox (Personal)/Maestria en Energia (MISE)/MISE_E4/MISE_E4-main/M1.7_Energy_Communitty_Dispatch/Ejemplo_1_MINLP/energy_community_CDS/24h/Gams/225a/"
    SysDir /Library/Frameworks/GAMS.framework/Versions/47/Resources/
    LogOption 3
    ErrMsg 1
    ErrorLog 99
    IDE 1
    LstTitleLeftAligned 1
Licensee: Academic User                                  G240823+0003Ac-GEN
          pm.deoliveiradejes@uniandes.edu.co                      CLA100108
          225a/gamslice.dat
          node:65452501 mem:16 cores:4 ipport:51196 v:2                    
          Community license for demonstration and instructional purposes only
Processor information: 1 socket(s), 4 core(s), and 8 thread(s) available
GAMS 47.5.0   Copyright (C) 1987-2024 GAMS Development. All rights reserved
--- Starting compilation
--- M1_7_E1e.gms(249) 3 Mb
--- Starting execution: elapsed 0:00:00.008
--- M1_7_E1e.gms(246) 4 Mb
--- Generating MINLP model modelCDS
--- M1_7_E1e.gms(249) 6 Mb
---   478 rows  471 columns  1,618 non-zeroes
---   397 nl-code  148 nl-non-zeroes
---   120 discrete-columns
--- Range statistics (absolute non-zero finite values)
--- RHS       [min, max] : [ 3.684E-02, 1.866E+06] - Zero values observed as well
--- Bound     [min, max] : [ 1.000E+00, 2.660E+03] - Zero values observed as well
--- Matrix    [min, max] : [ 4.563E-01, 8.400E+02] - Zero values observed as well
--- M1_7_E1e.gms(249) 4 Mb
--- Executing GUROBI (Solvelink=2): elapsed 0:00:00.023

Gurobi           47.5.0 d6b95593 Aug 29, 2024          DEG x86 64bit/macOS    

*** This solver runs with a community license. No commercial use.
Gurobi library version 11.0.2
GAMS/Gurobi demo/community requires a Gurobi license from Gurobi Optimization.
Set parameter OutputFlag to value 1
Set parameter MIPGapAbs to value 0
--- GMO Q Extraction (ThreePass): 0.00s
--- GMO setup time: 0.00
Set parameter QCPDual to value 1
Set parameter FuncNonlinear to value 1
Space for names approximately 0.02 Mb
Use option 'names no' to turn use of names off
Starting Gurobi...
Gurobi Optimizer version 11.0.2 build v11.0.2rc0 (mac64[x86] - Darwin 21.6.0 21H1320)

CPU model: Intel(R) Core(TM) i7-6700HQ CPU @ 2.60GHz
Thread count: 4 physical cores, 8 logical processors, using up to 8 threads

Optimize a model with 475 rows, 471 columns and 1468 nonzeros
Model fingerprint: 0x2ae5244f
Model has 3 quadratic constraints
Variable types: 351 continuous, 120 integer (120 binary)
Coefficient statistics:
  Matrix range     [9e-01, 8e+02]
  QMatrix range    [1e+00, 4e+02]
  QLMatrix range   [5e-01, 1e+00]
  Objective range  [1e+00, 1e+00]
  Bounds range     [1e+00, 3e+03]
  RHS range        [4e-02, 2e+06]
Presolve removed 150 rows and 52 columns
Presolve time: 0.01s
Presolved: 518 rows, 467 columns, 1598 nonzeros
Presolved model has 48 bilinear constraint(s)

Solving non-convex MIQCP

Variable types: 351 continuous, 116 integer (116 binary)

Root relaxation: objective -7.977358e+04, 205 iterations, 0.00 seconds (0.00 work units)

    Nodes    |    Current Node    |     Objective Bounds      |     Work
 Expl Unexpl |  Obj  Depth IntInf | Incumbent    BestBd   Gap | It/Node Time

     0     0 -79773.579    0    3          - -79773.579      -     -    0s
H    0     0                    -79773.57906 -79773.579  0.00%     -    0s
     0     0 -79773.579    0    3 -79773.579 -79773.579  0.00%     -    0s

Explored 1 nodes (205 simplex iterations) in 0.02 seconds (0.01 work units)
Thread count was 8 (of 8 available processors)

Solution count 1: -79773.6 
No other solutions better than -79773.6

Optimal solution found (tolerance 1.00e-04)
Warning: max constraint violation (7.6294e-06) exceeds tolerance
Best objective -7.977357905572e+04, best bound -7.977357905572e+04, gap 0.0000%

User-callback calls 556, time in user-callback 0.00 sec
MIQCP status(2): Model was solved to optimality (subject to tolerances).

Solving fixed MIQCP.
Gurobi Optimizer version 11.0.2 build v11.0.2rc0 (mac64[x86] - Darwin 21.6.0 21H1320)

CPU model: Intel(R) Core(TM) i7-6700HQ CPU @ 2.60GHz
Thread count: 4 physical cores, 8 logical processors, using up to 8 threads

Optimize a model with 475 rows, 471 columns and 1468 nonzeros
Model fingerprint: 0xdc2abbc7
Model has 3 quadratic constraints
Coefficient statistics:
  Matrix range     [9e-01, 8e+02]
  QMatrix range    [1e+00, 4e+02]
  QLMatrix range   [5e-01, 1e+00]
  Objective range  [1e+00, 1e+00]
  Bounds range     [1e+00, 1e+06]
  RHS range        [4e-02, 2e+06]
Presolve removed 433 rows and 372 columns
Presolve time: 0.00s
Presolved: 45 rows, 99 columns, 198 nonzeros
Ordering time: 0.00s

Barrier statistics:
 Free vars  : 2
 AA' NZ     : 8.200e+01
 Factor NZ  : 5.550e+02
 Factor Ops : 8.835e+03 (less than 1 second per iteration)
 Threads    : 1

                  Objective                Residual
Iter       Primal          Dual         Primal    Dual     Compl     Time
   0  -9.54535614e-10  3.91667266e+01  1.15e+04 1.25e-01  1.62e+02     0s
   1   3.13021821e+02  1.23770833e+01  3.97e+03 1.00e-01  5.31e+01     0s
   2  -1.23261959e+05 -2.28801759e+01  3.97e+03 1.00e-01  1.14e+02     0s
   3  -1.67951295e+05 -4.75490723e+01  3.96e+03 1.00e-01  2.44e+02     0s
   4  -1.70948305e+05  6.98315867e+02  3.96e+03 9.89e-02  3.96e+03     0s
   5  -1.49411412e+05  3.15424539e+03  3.66e+03 8.94e-02  1.92e+04     0s
   6  -1.01906565e+05 -7.42128930e+03  6.49e+02 4.07e-04  3.79e+04     0s
   7  -8.97117532e+04 -6.19197656e+04  2.49e+02 3.38e-05  1.14e+04     0s
   8  -8.39946253e+04 -7.32909447e+04  1.29e+02 4.09e-06  4.99e+03     0s
   9  -8.06381774e+04 -7.75708808e+04  3.18e+01 1.16e-06  1.30e+03     0s
  10  -8.01093838e+04 -7.93084488e+04  1.37e+00 2.22e-07  1.67e+02     0s
  11  -7.98317101e+04 -7.97370500e+04  5.79e-02 8.05e-08  1.72e+01     0s
  12  -7.97749718e+04 -7.97729527e+04  1.14e-03 1.27e-08  3.63e-01     0s
  13  -7.97735816e+04 -7.97735781e+04  8.32e-07 2.93e-10  5.68e-04     0s
  14  -7.97735791e+04 -7.97735791e+04  3.73e-09 1.36e-12  1.15e-07     0s
  15  -7.97735791e+04 -7.97735791e+04  1.86e-09 1.48e-12  7.02e-13     0s

Barrier solved model in 15 iterations and 0.00 seconds (0.00 work units)
Optimal objective -7.97735791e+04

Solving KKT system to obtain QCP duals...

Optimize a model with 478 rows, 471 columns and 1588 nonzeros
Model fingerprint: 0x355bea15
Coefficient statistics:
  Matrix range     [9e-01, 1e+06]
  Objective range  [2e-15, 4e+06]
  QObjective range [2e+00, 2e+00]
  Bounds range     [1e+00, 1e+06]
  RHS range        [2e-05, 2e+06]
Presolve removed 353 rows and 291 columns
Presolve time: 0.00s
Presolved: 125 rows, 180 columns, 453 nonzeros
Ordering time: 0.00s

Barrier statistics:
 Free vars  : 15
 AA' NZ     : 3.260e+02
 Factor NZ  : 1.359e+03
 Factor Ops : 1.754e+04 (less than 1 second per iteration)
 Threads    : 1

                  Objective                Residual
Iter       Primal          Dual         Primal    Dual     Compl     Time
   0  -6.66476393e+13  6.41101739e+13  4.67e+05 7.99e+04  2.63e+09     0s
   1  -1.39986504e+12  1.43607977e+12  5.70e+04 9.77e+03  3.26e+08     0s
   2  -3.69936620e+10  8.30561973e+11  5.01e+02 8.58e+01  5.51e+06     0s
   3  -1.85107665e+10  3.71679814e+11  1.05e+02 1.79e+01  1.82e+06     0s
   4  -1.01788681e+10  1.32282253e+11  2.70e+01 4.63e+00  5.64e+05     0s
   5  -5.02544025e+09  4.21576036e+10  3.26e+00 5.57e-01  1.60e+05     0s
   6  -9.80651819e+08  2.99064275e+09  1.15e-01 1.96e-02  1.25e+04     0s
   7  -1.56590485e+08  3.31228331e+08  4.96e-03 8.49e-04  1.51e+03     0s
   8  -5.37821445e+07  1.00602803e+08  1.02e-03 1.74e-04  4.77e+02     0s
   9  -1.10266220e+07  1.98254504e+07  1.20e-04 2.05e-05  9.53e+01     0s
  10  -2.60878794e+06  3.64782717e+06  1.07e-05 1.83e-06  1.93e+01     0s
  11  -4.44015476e+05  4.24426879e+05  4.17e-11 8.07e-10  2.68e+00     0s
  12  -1.31588214e+05 -1.96693154e+04  2.40e-11 1.13e-09  3.45e-01     0s
  13  -8.71423564e+04 -7.14039414e+04  4.08e-12 2.29e-10  4.85e-02     0s
  14  -8.08211514e+04 -7.85967705e+04  1.88e-12 2.05e-10  6.85e-03     0s
  15  -7.99226172e+04 -7.96071855e+04  1.82e-12 2.19e-11  9.72e-04     0s
  16  -7.97948320e+04 -7.97500664e+04  1.82e-12 1.88e-11  1.38e-04     0s
  17  -7.97766279e+04 -7.97702783e+04  1.82e-12 3.64e-12  1.96e-05     0s
  18  -7.97740225e+04 -7.97731230e+04  1.82e-12 9.99e-12  2.78e-06     0s
  19  -7.97736504e+04 -7.97735166e+04  1.82e-12 3.64e-12  3.94e-07     0s
  20  -7.97735908e+04 -7.97735723e+04  1.82e-12 7.21e-12  5.55e-08     0s
  21  -7.97735811e+04 -7.97735771e+04  1.82e-12 7.28e-12  7.38e-09     0s

Barrier solved model in 21 iterations and 0.01 seconds (0.00 work units)
Optimal objective -7.97735811e+04


User-callback calls 664, time in user-callback 0.00 sec
Fixed MIQCP status(2): Model was solved to optimality (subject to tolerances).

MIQCP Solution:     -79773.579056    (205 iterations, 1 nodes)
Final Solve:        -79773.579056    (0 iterations)

Best possible:      -79773.579056
Absolute gap:           -0.000000
Relative gap:            0.000000

--- Reading solution for model modelCDS
--- Executing after solve: elapsed 0:00:00.518
--- GDX File (execute_unload) /Users/pm.deoliveiradejes/Dropbox (Personal)/Maestria en Energia (MISE)/MISE_E4/MISE_E4-main/M1.7_Energy_Communitty_Dispatch/Ejemplo_1_MINLP/energy_community_CDS/24h/Gams/M1_7_E1e.gdx
*** Status: Normal completion
--- Job M1_7_E1e.gms Stop 05/31/25 23:25:42 elapsed 0:00:00.520
